&control
calculation = "nscf"
prefix = "gaas"
pseudo_dir = "./"
outdir = "./"
/
&system
ibrav = 2
celldm(1) = 10.4749
nat = 2
ntyp = 2
ecutwfc = 40.0
nbnd = 16
nosym = .true.
noinv = .true.
/
&electrons
/
ATOMIC_SPECIES
Ga 1.0 Ga.pz-bhs.UPF
As 1.0 As.pz-bhs.UPF

ATOMIC_POSITIONS
Ga 0.00 0.00 0.00
As 0.25 0.25 0.25

K_POINTS automatic
5 5 5 1 1 1
EOF