&input
fildyn = "dyn",
flfrc = "GaAs.fc"
/
EOF