&control
calculation = "scf"
prefix = "gaas",
pseudo_dir = "./",
outdir = "./"
/
&system
ibrav = 2,
celldm(1) = 10.47494,
nat = 2,
ntyp = 2,
ecutwfc = 40.0,
/
&electrons
/
ATOMIC_SPECIES
Ga 1.0 Ga.pz-bhs.UPF
As 1.0 As.pz-bhs.UPF
ATOMIC_POSITIONS crystal
Ga 0.00 0.00 0.00
As 0.25 0.25 0.25
K_POINTS automatic
6 6 6 1 1 1
EOF