&bands
prefix = "gaas"
outdir = "./"
filband = "bands"
/
EOF