&input
 fildyn='si.dyn', flfrc = 'si.333.fc'
/
