Phonons of Silicon
&inputph
   amass(1)= 28.0855,
   amass(2)= 30.974,
   prefix = 'si'
   outdir = './'
   ldisp = .true.
   fildyn = 'si.dyn'
   tr2_ph = 1.0d-12
   nq1 = 1
   nq2 = 1
   nq3 = 1
/
