 &control
    calculation = 'scf'
    restart_mode = 'from_scratch',
    prefix = 'si',
    pseudo_dir = './',
    outdir='./'
 /
 &system
    ibrav = 2,
    celldm(1) = 30.60,
    nat =  54,
    ntyp = 2,
    ecutwfc = 30.0
    occupations='smearing'
    degauss = 0.01
    nosym =.true.
 /
 &electrons
    diagonalization='david'
    mixing_mode = 'plain'
    mixing_beta = 0.7
    conv_thr = 1.0d-7
 /
ATOMIC_SPECIES
 Si  28.086  Si.pz-vbc.UPF
 P  30.974   P.pz-hgh.UPF
K_POINTS automatic
2 2 2 0 0 0
ATOMIC_POSITIONS {crystal}
P             0.0000000206       -0.0000000333        0.0000000111
Si           -0.0833374279        0.2500122914       -0.0833374426
Si            0.3321711388        0.0009379472        0.0009379538
Si            0.2503592276        0.2503592277       -0.0837486049
Si            0.6659529533        0.0009379563        0.0009379710
Si            0.5830301381        0.2503592389       -0.0837486002
Si            0.0009379566        0.3321711359        0.0009379492
Si           -0.0839666040        0.5839666156       -0.0839666199
Si            0.3332437990        0.3332438108        0.0002685942
Si            0.2503592265        0.5830301428       -0.0837485897
Si            0.6659529487        0.3321711390        0.0009379622
Si            0.5839666066        0.5839666193       -0.0839666256
Si            0.0009379637        0.6659529497        0.0009379746
Si           -0.0833374242        0.9166625635       -0.0833374370
Si            0.3321711380        0.6659529414        0.0009379627
Si            0.2500123218        0.9166625484       -0.0833374466
Si            0.6665368156        0.6665368202        0.0003895414
Si            0.5839666089        0.9160333893       -0.0839666155
Si            0.0009379490        0.0009379423        0.3321711510
Si           -0.0837486020        0.2503592310        0.2503592331
Si            0.3332438045        0.0002685943        0.3332438123
Si            0.2500000017        0.2500000044        0.2500000062
Si            0.6659529538        0.0009379308        0.3321711704
Si            0.5830301214        0.2503592155        0.2503592497
Si            0.0002686057        0.3332438137        0.3332438007
Si           -0.0837485932        0.5830301447        0.2503592440
Si            0.3332437825        0.3332437988        0.3332438103
Si            0.2503592181        0.5830301322        0.2503592413
Si            0.6665463371        0.3334536499        0.3334536517
Si            0.5832672796        0.5832673007        0.2501981273
Si            0.0009379488        0.6659529513        0.3321711549
Si           -0.0833374385        0.9166625435        0.2500123234
Si            0.3334536288        0.6665463469        0.3334536594
Si            0.2503592262        0.9162513921        0.2503592371
Si            0.6665463573        0.6665463629        0.3334536545
Si            0.5830301378        0.9162514050        0.2503592464
Si            0.0009379733        0.0009379630        0.6659529404
Si           -0.0837485865        0.2503592467        0.5830301254
Si            0.3321711647        0.0009379498        0.6659529420
Si            0.2503592290        0.2503592296        0.5830301272
Si            0.6665368140        0.0003895400        0.6665368055
Si            0.5832672814        0.2501981188        0.5832672845
Si            0.0009379566        0.3321711589        0.6659529445
Si           -0.0839666079        0.5839666213        0.5839665848
Si            0.3334536319        0.3334536532        0.6665463407
Si            0.2501981121        0.5832672988        0.5832672876
Si            0.6665463542        0.3334536689        0.6665463360
Si            0.5832672867        0.5832673198        0.5832672798
Si            0.0003895478        0.6665368202        0.6665368012
Si           -0.0839666074        0.9160333852        0.5839666006
Si            0.3334536419        0.6665463646        0.6665463546
Si            0.2503592453        0.9162514117        0.5830301315
Si            0.6665368199        0.6665368123        0.6665368012
Si            0.5839666168        0.9160333729        0.5839666004
