&CONTROL
    calculation  = 'bands'
    prefix       = 'graphene'
    outdir       = './'
    verbosity    = 'high'
 /

 &SYSTEM
    ibrav       = 4
    celldm(1)   = 4.6169
    celldm(3)   = 10
    nat         = 2
    ntyp        = 1
    ecutwfc     = 100.0
    occupations = 'smearing'
    smearing    = 'mp'
    degauss     = 5.0d-3
 /
 
 &ELECTRONS
     conv_thr =  1.0d-9
 /

ATOMIC_SPECIES
 C 12.011  C.upf

ATOMIC_POSITIONS (crystal)
C     1/3     2/3    0.0
C     2/3     1/3    0.0

K_POINTS tpiba_b
5
0.0  0.0  0.0   40
0.5  0.0  0.0   40
1/3  1/3  0.0   40
0.0  0.0  0.0   40
0.0  0.0  0.5   1
