&control
	calculation = "scf"
	prefix = "graphite"
	pseudo_dir = "./"
	outdir = "./"
/

&system
	ibrav = 4,
	celldm(1) = 4.7,
	celldm(3) = 3.2,
	nat = 4,
	ntyp = 1,
	ecutwfc = 100,
/

&electrons
/

ATOMIC_SPECIES
C 1.0 C.pz-vbc.UPF

ATOMIC_POSITIONS crystal
C 0.000000 0.000000 0.250000
C 0.000000 0.000000 0.750000
C 0.333333 0.666667 0.250000
C 0.666667 0.333333 0.750000

K_POINTS automatic
6 6 6 1 1 1