 &control
  calculation = 'scf'
  restart_mode = 'from_scratch'
  prefix = 'equil-si'
  pseudo_dir = './'
  outdir = './'
/
&system
  ibrav = 0
  nat =   54
  ntyp =    1
  ecutwfc =  20.00
/
&electrons
  diagonalization = 'david'
  mixing_mode= 'plain'
  mixing_beta = 0.70
  conv_thr =   0.1D-06
/
ATOMIC_SPECIES
   Si   28.085 Si.pz-vbc.UPF
K_POINTS automatic
   2   2   2   0   0   0
CELL_PARAMETERS {angstrom}
     -8.09641133      0.00000000      8.09641133
      0.00000000      8.09641133      8.09641133
     -8.09641133      8.09641133      0.00000000
ATOMIC_POSITIONS {angstrom}
   Si    0.00000000   0.00000000   0.00000000
   Si   -1.34940189   1.34940189   1.34940189
   Si   -2.69880378   0.00000000   2.69880378
   Si   -4.04820566   1.34940189   4.04820566
   Si   -5.39760755   0.00000000   5.39760755
   Si   -6.74700944   1.34940189   6.74700944
   Si    0.00000000   2.69880378   2.69880378
   Si   -1.34940189   4.04820566   4.04820566
   Si   -2.69880378   2.69880378   5.39760755
   Si   -4.04820566   4.04820566   6.74700944
   Si   -5.39760755   2.69880378   8.09641133
   Si   -6.74700944   4.04820566   9.44581321
   Si    0.00000000   5.39760755   5.39760755
   Si   -1.34940189   6.74700944   6.74700944
   Si   -2.69880378   5.39760755   8.09641133
   Si   -4.04820566   6.74700944   9.44581321
   Si   -5.39760755   5.39760755  10.79521510
   Si   -6.74700944   6.74700944  12.14461699
   Si   -2.69880378   2.69880378   0.00000000
   Si   -4.04820566   4.04820566   1.34940189
   Si   -5.39760755   2.69880378   2.69880378
   Si   -6.74700944   4.04820566   4.04820566
   Si   -8.09641133   2.69880378   5.39760755
   Si   -9.44581321   4.04820566   6.74700944
   Si   -2.69880378   5.39760755   2.69880378
   Si   -4.04820566   6.74700944   4.04820566
   Si   -5.39760755   5.39760755   5.39760755
   Si   -6.74700944   6.74700944   6.74700944
   Si   -8.09641133   5.39760755   8.09641133
   Si   -9.44581321   6.74700944   9.44581321
   Si   -2.69880378   8.09641133   5.39760755
   Si   -4.04820566   9.44581321   6.74700944
   Si   -5.39760755   8.09641133   8.09641133
   Si   -6.74700944   9.44581321   9.44581321
   Si   -8.09641133   8.09641133  10.79521510
   Si   -9.44581321   9.44581321  12.14461699
   Si   -5.39760755   5.39760755   0.00000000
   Si   -6.74700944   6.74700944   1.34940189
   Si   -8.09641133   5.39760755   2.69880378
   Si   -9.44581321   6.74700944   4.04820566
   Si  -10.79521510   5.39760755   5.39760755
   Si  -12.14461699   6.74700944   6.74700944
   Si   -5.39760755   8.09641133   2.69880378
   Si   -6.74700944   9.44581321   4.04820566
   Si   -8.09641133   8.09641133   5.39760755
   Si   -9.44581321   9.44581321   6.74700944
   Si  -10.79521510   8.09641133   8.09641133
   Si  -12.14461699   9.44581321   9.44581321
   Si   -5.39760755  10.79521510   5.39760755
   Si   -6.74700944  12.14461699   6.74700944
   Si   -8.09641133  10.79521510   8.09641133
   Si   -9.44581321  12.14461699   9.44581321
   Si  -10.79521510  10.79521510  10.79521510
   Si  -12.14461699  12.14461699  12.14461699
