--
&control
    calculation     = 'bands'
    prefix          = 'lif'
    pseudo_dir      = './'
    outdir          = './'
/
&system
    ibrav           = 2
    celldm(1)       = 7.67034
    nat             = 2
    ntyp            = 2
    ecutwfc         = 80.0
    nbnd            = 15
/
&electrons
    mixing_beta     = 0.7
    conv_thr        = 1.0d-12
/
ATOMIC_SPECIES 
 Li 6.941  Li.upf
 F 18.9984 F.upf
ATOMIC_POSITIONS crystal
 Li 0.0000 0.0000 0.0000
 F  0.5000 0.5000 0.5000
K_POINTS crystal
 216
 0.00000000  0.00000000  0.00000000  4.629630e-03
 0.00000000  0.00000000  0.16666667  4.629630e-03
 0.00000000  0.00000000  0.33333333  4.629630e-03
 0.00000000  0.00000000  0.50000000  4.629630e-03
 0.00000000  0.00000000  0.66666667  4.629630e-03
 0.00000000  0.00000000  0.83333333  4.629630e-03
 0.00000000  0.16666667  0.00000000  4.629630e-03
 0.00000000  0.16666667  0.16666667  4.629630e-03
 0.00000000  0.16666667  0.33333333  4.629630e-03
 0.00000000  0.16666667  0.50000000  4.629630e-03
 0.00000000  0.16666667  0.66666667  4.629630e-03
 0.00000000  0.16666667  0.83333333  4.629630e-03
 0.00000000  0.33333333  0.00000000  4.629630e-03
 0.00000000  0.33333333  0.16666667  4.629630e-03
 0.00000000  0.33333333  0.33333333  4.629630e-03
 0.00000000  0.33333333  0.50000000  4.629630e-03
 0.00000000  0.33333333  0.66666667  4.629630e-03
 0.00000000  0.33333333  0.83333333  4.629630e-03
 0.00000000  0.50000000  0.00000000  4.629630e-03
 0.00000000  0.50000000  0.16666667  4.629630e-03
 0.00000000  0.50000000  0.33333333  4.629630e-03
 0.00000000  0.50000000  0.50000000  4.629630e-03
 0.00000000  0.50000000  0.66666667  4.629630e-03
 0.00000000  0.50000000  0.83333333  4.629630e-03
 0.00000000  0.66666667  0.00000000  4.629630e-03
 0.00000000  0.66666667  0.16666667  4.629630e-03
 0.00000000  0.66666667  0.33333333  4.629630e-03
 0.00000000  0.66666667  0.50000000  4.629630e-03
 0.00000000  0.66666667  0.66666667  4.629630e-03
 0.00000000  0.66666667  0.83333333  4.629630e-03
 0.00000000  0.83333333  0.00000000  4.629630e-03
 0.00000000  0.83333333  0.16666667  4.629630e-03
 0.00000000  0.83333333  0.33333333  4.629630e-03
 0.00000000  0.83333333  0.50000000  4.629630e-03
 0.00000000  0.83333333  0.66666667  4.629630e-03
 0.00000000  0.83333333  0.83333333  4.629630e-03
 0.16666667  0.00000000  0.00000000  4.629630e-03
 0.16666667  0.00000000  0.16666667  4.629630e-03
 0.16666667  0.00000000  0.33333333  4.629630e-03
 0.16666667  0.00000000  0.50000000  4.629630e-03
 0.16666667  0.00000000  0.66666667  4.629630e-03
 0.16666667  0.00000000  0.83333333  4.629630e-03
 0.16666667  0.16666667  0.00000000  4.629630e-03
 0.16666667  0.16666667  0.16666667  4.629630e-03
 0.16666667  0.16666667  0.33333333  4.629630e-03
 0.16666667  0.16666667  0.50000000  4.629630e-03
 0.16666667  0.16666667  0.66666667  4.629630e-03
 0.16666667  0.16666667  0.83333333  4.629630e-03
 0.16666667  0.33333333  0.00000000  4.629630e-03
 0.16666667  0.33333333  0.16666667  4.629630e-03
 0.16666667  0.33333333  0.33333333  4.629630e-03
 0.16666667  0.33333333  0.50000000  4.629630e-03
 0.16666667  0.33333333  0.66666667  4.629630e-03
 0.16666667  0.33333333  0.83333333  4.629630e-03
 0.16666667  0.50000000  0.00000000  4.629630e-03
 0.16666667  0.50000000  0.16666667  4.629630e-03
 0.16666667  0.50000000  0.33333333  4.629630e-03
 0.16666667  0.50000000  0.50000000  4.629630e-03
 0.16666667  0.50000000  0.66666667  4.629630e-03
 0.16666667  0.50000000  0.83333333  4.629630e-03
 0.16666667  0.66666667  0.00000000  4.629630e-03
 0.16666667  0.66666667  0.16666667  4.629630e-03
 0.16666667  0.66666667  0.33333333  4.629630e-03
 0.16666667  0.66666667  0.50000000  4.629630e-03
 0.16666667  0.66666667  0.66666667  4.629630e-03
 0.16666667  0.66666667  0.83333333  4.629630e-03
 0.16666667  0.83333333  0.00000000  4.629630e-03
 0.16666667  0.83333333  0.16666667  4.629630e-03
 0.16666667  0.83333333  0.33333333  4.629630e-03
 0.16666667  0.83333333  0.50000000  4.629630e-03
 0.16666667  0.83333333  0.66666667  4.629630e-03
 0.16666667  0.83333333  0.83333333  4.629630e-03
 0.33333333  0.00000000  0.00000000  4.629630e-03
 0.33333333  0.00000000  0.16666667  4.629630e-03
 0.33333333  0.00000000  0.33333333  4.629630e-03
 0.33333333  0.00000000  0.50000000  4.629630e-03
 0.33333333  0.00000000  0.66666667  4.629630e-03
 0.33333333  0.00000000  0.83333333  4.629630e-03
 0.33333333  0.16666667  0.00000000  4.629630e-03
 0.33333333  0.16666667  0.16666667  4.629630e-03
 0.33333333  0.16666667  0.33333333  4.629630e-03
 0.33333333  0.16666667  0.50000000  4.629630e-03
 0.33333333  0.16666667  0.66666667  4.629630e-03
 0.33333333  0.16666667  0.83333333  4.629630e-03
 0.33333333  0.33333333  0.00000000  4.629630e-03
 0.33333333  0.33333333  0.16666667  4.629630e-03
 0.33333333  0.33333333  0.33333333  4.629630e-03
 0.33333333  0.33333333  0.50000000  4.629630e-03
 0.33333333  0.33333333  0.66666667  4.629630e-03
 0.33333333  0.33333333  0.83333333  4.629630e-03
 0.33333333  0.50000000  0.00000000  4.629630e-03
 0.33333333  0.50000000  0.16666667  4.629630e-03
 0.33333333  0.50000000  0.33333333  4.629630e-03
 0.33333333  0.50000000  0.50000000  4.629630e-03
 0.33333333  0.50000000  0.66666667  4.629630e-03
 0.33333333  0.50000000  0.83333333  4.629630e-03
 0.33333333  0.66666667  0.00000000  4.629630e-03
 0.33333333  0.66666667  0.16666667  4.629630e-03
 0.33333333  0.66666667  0.33333333  4.629630e-03
 0.33333333  0.66666667  0.50000000  4.629630e-03
 0.33333333  0.66666667  0.66666667  4.629630e-03
 0.33333333  0.66666667  0.83333333  4.629630e-03
 0.33333333  0.83333333  0.00000000  4.629630e-03
 0.33333333  0.83333333  0.16666667  4.629630e-03
 0.33333333  0.83333333  0.33333333  4.629630e-03
 0.33333333  0.83333333  0.50000000  4.629630e-03
 0.33333333  0.83333333  0.66666667  4.629630e-03
 0.33333333  0.83333333  0.83333333  4.629630e-03
 0.50000000  0.00000000  0.00000000  4.629630e-03
 0.50000000  0.00000000  0.16666667  4.629630e-03
 0.50000000  0.00000000  0.33333333  4.629630e-03
 0.50000000  0.00000000  0.50000000  4.629630e-03
 0.50000000  0.00000000  0.66666667  4.629630e-03
 0.50000000  0.00000000  0.83333333  4.629630e-03
 0.50000000  0.16666667  0.00000000  4.629630e-03
 0.50000000  0.16666667  0.16666667  4.629630e-03
 0.50000000  0.16666667  0.33333333  4.629630e-03
 0.50000000  0.16666667  0.50000000  4.629630e-03
 0.50000000  0.16666667  0.66666667  4.629630e-03
 0.50000000  0.16666667  0.83333333  4.629630e-03
 0.50000000  0.33333333  0.00000000  4.629630e-03
 0.50000000  0.33333333  0.16666667  4.629630e-03
 0.50000000  0.33333333  0.33333333  4.629630e-03
 0.50000000  0.33333333  0.50000000  4.629630e-03
 0.50000000  0.33333333  0.66666667  4.629630e-03
 0.50000000  0.33333333  0.83333333  4.629630e-03
 0.50000000  0.50000000  0.00000000  4.629630e-03
 0.50000000  0.50000000  0.16666667  4.629630e-03
 0.50000000  0.50000000  0.33333333  4.629630e-03
 0.50000000  0.50000000  0.50000000  4.629630e-03
 0.50000000  0.50000000  0.66666667  4.629630e-03
 0.50000000  0.50000000  0.83333333  4.629630e-03
 0.50000000  0.66666667  0.00000000  4.629630e-03
 0.50000000  0.66666667  0.16666667  4.629630e-03
 0.50000000  0.66666667  0.33333333  4.629630e-03
 0.50000000  0.66666667  0.50000000  4.629630e-03
 0.50000000  0.66666667  0.66666667  4.629630e-03
 0.50000000  0.66666667  0.83333333  4.629630e-03
 0.50000000  0.83333333  0.00000000  4.629630e-03
 0.50000000  0.83333333  0.16666667  4.629630e-03
 0.50000000  0.83333333  0.33333333  4.629630e-03
 0.50000000  0.83333333  0.50000000  4.629630e-03
 0.50000000  0.83333333  0.66666667  4.629630e-03
 0.50000000  0.83333333  0.83333333  4.629630e-03
 0.66666667  0.00000000  0.00000000  4.629630e-03
 0.66666667  0.00000000  0.16666667  4.629630e-03
 0.66666667  0.00000000  0.33333333  4.629630e-03
 0.66666667  0.00000000  0.50000000  4.629630e-03
 0.66666667  0.00000000  0.66666667  4.629630e-03
 0.66666667  0.00000000  0.83333333  4.629630e-03
 0.66666667  0.16666667  0.00000000  4.629630e-03
 0.66666667  0.16666667  0.16666667  4.629630e-03
 0.66666667  0.16666667  0.33333333  4.629630e-03
 0.66666667  0.16666667  0.50000000  4.629630e-03
 0.66666667  0.16666667  0.66666667  4.629630e-03
 0.66666667  0.16666667  0.83333333  4.629630e-03
 0.66666667  0.33333333  0.00000000  4.629630e-03
 0.66666667  0.33333333  0.16666667  4.629630e-03
 0.66666667  0.33333333  0.33333333  4.629630e-03
 0.66666667  0.33333333  0.50000000  4.629630e-03
 0.66666667  0.33333333  0.66666667  4.629630e-03
 0.66666667  0.33333333  0.83333333  4.629630e-03
 0.66666667  0.50000000  0.00000000  4.629630e-03
 0.66666667  0.50000000  0.16666667  4.629630e-03
 0.66666667  0.50000000  0.33333333  4.629630e-03
 0.66666667  0.50000000  0.50000000  4.629630e-03
 0.66666667  0.50000000  0.66666667  4.629630e-03
 0.66666667  0.50000000  0.83333333  4.629630e-03
 0.66666667  0.66666667  0.00000000  4.629630e-03
 0.66666667  0.66666667  0.16666667  4.629630e-03
 0.66666667  0.66666667  0.33333333  4.629630e-03
 0.66666667  0.66666667  0.50000000  4.629630e-03
 0.66666667  0.66666667  0.66666667  4.629630e-03
 0.66666667  0.66666667  0.83333333  4.629630e-03
 0.66666667  0.83333333  0.00000000  4.629630e-03
 0.66666667  0.83333333  0.16666667  4.629630e-03
 0.66666667  0.83333333  0.33333333  4.629630e-03
 0.66666667  0.83333333  0.50000000  4.629630e-03
 0.66666667  0.83333333  0.66666667  4.629630e-03
 0.66666667  0.83333333  0.83333333  4.629630e-03
 0.83333333  0.00000000  0.00000000  4.629630e-03
 0.83333333  0.00000000  0.16666667  4.629630e-03
 0.83333333  0.00000000  0.33333333  4.629630e-03
 0.83333333  0.00000000  0.50000000  4.629630e-03
 0.83333333  0.00000000  0.66666667  4.629630e-03
 0.83333333  0.00000000  0.83333333  4.629630e-03
 0.83333333  0.16666667  0.00000000  4.629630e-03
 0.83333333  0.16666667  0.16666667  4.629630e-03
 0.83333333  0.16666667  0.33333333  4.629630e-03
 0.83333333  0.16666667  0.50000000  4.629630e-03
 0.83333333  0.16666667  0.66666667  4.629630e-03
 0.83333333  0.16666667  0.83333333  4.629630e-03
 0.83333333  0.33333333  0.00000000  4.629630e-03
 0.83333333  0.33333333  0.16666667  4.629630e-03
 0.83333333  0.33333333  0.33333333  4.629630e-03
 0.83333333  0.33333333  0.50000000  4.629630e-03
 0.83333333  0.33333333  0.66666667  4.629630e-03
 0.83333333  0.33333333  0.83333333  4.629630e-03
 0.83333333  0.50000000  0.00000000  4.629630e-03
 0.83333333  0.50000000  0.16666667  4.629630e-03
 0.83333333  0.50000000  0.33333333  4.629630e-03
 0.83333333  0.50000000  0.50000000  4.629630e-03
 0.83333333  0.50000000  0.66666667  4.629630e-03
 0.83333333  0.50000000  0.83333333  4.629630e-03
 0.83333333  0.66666667  0.00000000  4.629630e-03
 0.83333333  0.66666667  0.16666667  4.629630e-03
 0.83333333  0.66666667  0.33333333  4.629630e-03
 0.83333333  0.66666667  0.50000000  4.629630e-03
 0.83333333  0.66666667  0.66666667  4.629630e-03
 0.83333333  0.66666667  0.83333333  4.629630e-03
 0.83333333  0.83333333  0.00000000  4.629630e-03
 0.83333333  0.83333333  0.16666667  4.629630e-03
 0.83333333  0.83333333  0.33333333  4.629630e-03
 0.83333333  0.83333333  0.50000000  4.629630e-03
 0.83333333  0.83333333  0.66666667  4.629630e-03
 0.83333333  0.83333333  0.83333333  4.629630e-03
