--
&inputph
  prefix    = 'lif'
  outdir    = './'
  epsil     = .true.
  zeu       = .true.
  ldisp     = .true.
  fildyn    = 'lif.dyn'
  fildvscf  = 'dvscf'
  tr2_ph    =  1.0d-14,
  nq1       = 6, 
  nq2       = 6, 
  nq3       = 6
/
