 &control
  calculation = 'nscf'
  restart_mode = 'from_scratch'
  prefix = 'equil-si'
  pseudo_dir = './'
  outdir = './'
/
&system
  ibrav = 0
  nat =   54
  ntyp =    1
  ecutwfc =  20.00
  nbnd = 135
  nosym = .true.
/
&electrons
  diagonalization = 'david'
  mixing_mode= 'plain'
  mixing_beta = 0.70
  conv_thr =   0.1D-06
/
ATOMIC_SPECIES
   Si   28.085 Si.pz-vbc.UPF
CELL_PARAMETERS {angstrom}
     -8.09641133      0.00000000      8.09641133
      0.00000000      8.09641133      8.09641133
     -8.09641133      8.09641133      0.00000000
ATOMIC_POSITIONS {angstrom}
   Si    0.00000000   0.00000000   0.00000000
   Si   -1.34940189   1.34940189   1.34940189
   Si   -2.69880378   0.00000000   2.69880378
   Si   -4.04820566   1.34940189   4.04820566
   Si   -5.39760755   0.00000000   5.39760755
   Si   -6.74700944   1.34940189   6.74700944
   Si    0.00000000   2.69880378   2.69880378
   Si   -1.34940189   4.04820566   4.04820566
   Si   -2.69880378   2.69880378   5.39760755
   Si   -4.04820566   4.04820566   6.74700944
   Si   -5.39760755   2.69880378   8.09641133
   Si   -6.74700944   4.04820566   9.44581321
   Si    0.00000000   5.39760755   5.39760755
   Si   -1.34940189   6.74700944   6.74700944
   Si   -2.69880378   5.39760755   8.09641133
   Si   -4.04820566   6.74700944   9.44581321
   Si   -5.39760755   5.39760755  10.79521510
   Si   -6.74700944   6.74700944  12.14461699
   Si   -2.69880378   2.69880378   0.00000000
   Si   -4.04820566   4.04820566   1.34940189
   Si   -5.39760755   2.69880378   2.69880378
   Si   -6.74700944   4.04820566   4.04820566
   Si   -8.09641133   2.69880378   5.39760755
   Si   -9.44581321   4.04820566   6.74700944
   Si   -2.69880378   5.39760755   2.69880378
   Si   -4.04820566   6.74700944   4.04820566
   Si   -5.39760755   5.39760755   5.39760755
   Si   -6.74700944   6.74700944   6.74700944
   Si   -8.09641133   5.39760755   8.09641133
   Si   -9.44581321   6.74700944   9.44581321
   Si   -2.69880378   8.09641133   5.39760755
   Si   -4.04820566   9.44581321   6.74700944
   Si   -5.39760755   8.09641133   8.09641133
   Si   -6.74700944   9.44581321   9.44581321
   Si   -8.09641133   8.09641133  10.79521510
   Si   -9.44581321   9.44581321  12.14461699
   Si   -5.39760755   5.39760755   0.00000000
   Si   -6.74700944   6.74700944   1.34940189
   Si   -8.09641133   5.39760755   2.69880378
   Si   -9.44581321   6.74700944   4.04820566
   Si  -10.79521510   5.39760755   5.39760755
   Si  -12.14461699   6.74700944   6.74700944
   Si   -5.39760755   8.09641133   2.69880378
   Si   -6.74700944   9.44581321   4.04820566
   Si   -8.09641133   8.09641133   5.39760755
   Si   -9.44581321   9.44581321   6.74700944
   Si  -10.79521510   8.09641133   8.09641133
   Si  -12.14461699   9.44581321   9.44581321
   Si   -5.39760755  10.79521510   5.39760755
   Si   -6.74700944  12.14461699   6.74700944
   Si   -8.09641133  10.79521510   8.09641133
   Si   -9.44581321  12.14461699   9.44581321
   Si  -10.79521510  10.79521510  10.79521510
   Si  -12.14461699  12.14461699  12.14461699
K_POINTS crystal
30
0.236650 0.022946 0.917156 1.0  
0.392728 0.655175 0.471114 1.0
0.685275 0.300237 0.524592 1.0
0.014066 0.014237 0.341848 1.0
0.674785 0.981856 0.452002 1.0
0.585877 0.558452 0.034695 1.0
0.120587 0.157142 0.269966 1.0
0.175380 0.191651 0.076105 1.0
0.295702 0.072024 0.252889 1.0
0.953225 0.716170 0.451337 1.0
0.072975 0.703875 0.109268 1.0
0.292343 0.329386 0.596316 1.0
0.109004 0.565619 0.977349 1.0
0.981549 0.888360 0.336290 1.0
0.341873 0.646521 0.057719 1.0
0.412597 0.344296 0.139287 1.0
0.714469 0.167645 0.876436 1.0
0.545722 0.447153 0.228543 1.0
0.438749 0.573974 0.250784 1.0
0.837891 0.580335 0.813524 1.0
0.101878 0.910812 0.294510 1.0
0.806006 0.620090 0.334625 1.0
0.896270 0.213609 0.747021 1.0
0.412092 0.524691 0.212903 1.0
0.764876 0.341371 0.661305 1.0
0.671022 0.545863 0.721647 1.0
0.092989 0.951769 0.609089 1.0
0.165812 0.899537 0.495092 1.0
0.772926 0.681975 0.146921 1.0
0.988471 0.940872 0.956154 1.0
