&control
    calculation     =  'bands'
    prefix          =  'si'
    outdir          =  'out/'
/
&system
    ibrav           = 0
    nat             = 2
    ntyp            = 1
    ecutwfc         = 50.0
    ecutrho         = 400.0
    nbnd            = 12
/
&electrons
    conv_thr        =   1.0d-12
/

ATOMIC_SPECIES
Si  28.  Si.pbe-n-van.UPF

ATOMIC_POSITIONS crystal
Si  -0.25   0.75   -0.25
Si   0.00   0.00    0.00

K_POINTS crystal_b
3
0.5 0.5 0.5  50
0.0 0.0 0.0  50
0.5 0.0 0.5  50

CELL_PARAMETERS bohr
-5.1    0.0    5.1
 0.0    5.1    5.1
-5.1    5.1    0.0
