 &bands
    prefix='lead',
    outdir='./'
    filband='lead.bands'
    !lsym=.true.
 /
