--
&inputph
prefix = 'lead',
fildyn = 'lead.dyn',
ldisp = .true.,
nq1 = 4,
nq2 = 4,
nq3 = 4,
tr2_ph = 1.0d-12
/
