&control
        calculation = "scf"
        prefix = "cl2",
        forc_conv_thr = 1.d-5,
        etot_conv_thr = 1.d-8,
        pseudo_dir = "../pseudo",
        outdir = "./"
/
&system
        ibrav = 1,
        celldm(1) = 20.0,
        nat = 2,
        ntyp = 1,
        ecutwfc = 100,
/
&electrons
/
&ions
/
ATOMIC_SPECIES
Cl 35.453.0 Cl.upf

ATOMIC_POSITIONS bohr
Cl 0.00 0.00 0.00
Cl 3.725+0.06 0.00 0.00

K_POINTS tpiba
1
0.0 0.0 0.0 1.0
