&BANDS
 prefix  = 'si'
 outdir  = './'
 filband = 'bands.dat'
 lsym    = .false.
/
