 &control
    calculation = 'bands'
    restart_mode = 'from_scratch',
    prefix = 'si',
    pseudo_dir = './',
    outdir='./'
 /
 &system
    ibrav = 2, 
    celldm(1) = 10.20, 
    nat =  2, 
    ntyp = 1, 
    ecutwfc = 20.0
    nbnd = 5
 /
 &electrons
    diagonalization='david'
    mixing_mode = 'plain'
    mixing_beta = 0.7
    conv_thr = 1.0d-7
 /
ATOMIC_SPECIES
 Si  28.086  Si.pz-vbc.UPF
K_POINTS  {crystal_b}
2
 0.000000   0.000000   0.000000  50
 0.000000   0.500000   0.500000   1
ATOMIC_POSITIONS {crystal}
 Si 0.00 0.00 0.00
 Si 0.25 0.25 0.25
