&CONTROL
    calculation  = 'vc-relax'
    restart_mode = 'from_scratch'
    prefix       = 'graphene'
    pseudo_dir   = '../pseudo/'
    outdir       = './'
    tstress      = .true.
    verbosity    = 'high'
 /

 &SYSTEM
    ibrav       = 4
    celldm(1)   = 4.6415
    celldm(3)   = 10
    nat         = 2
    ntyp        = 1
    ecutwfc     = 100.0
    occupations = 'smearing'
    smearing    = 'mp'
    degauss     = 5.0d-3
 /
 
 &ELECTRONS
     conv_thr =  1.0d-9
 /

 &IONS
 /

 &CELL
    press = 0.0d0
    press_conv_thr = 1.0d-2
    cell_dofree = '2Dxy'
 /

ATOMIC_SPECIES
C 12.011  C.upf

ATOMIC_POSITIONS (crystal)
C    2/3    1/3    0.0
C    1/3    2/3    0.0

K_POINTS automatic
32 32 1  1 1 0
