&control
   prefix = 'si'
   calculation = 'scf'
   outdir = './'
   pseudo_dir = '../../pseudo/'
   verbosity = 'high'
/
&system
   ibrav = 0
   a = 5.43
   nat = 2
   ntyp = 1
   ecutwfc = 25.0
/
&electrons
   conv_thr = 1.0d-10
/
CELL_PARAMETERS alat
       0.000000000   0.500000000   0.500000000
       0.500000000   0.000000000   0.500000000
       0.500000000   0.500000000   0.000000000
ATOMIC_SPECIES
  Si  28.086  Si.UPF
ATOMIC_POSITIONS crystal
  Si  -0.125000000  -0.125000000  -0.125000000
  Si   0.125000000   0.125000000   0.125000000
K_POINTS automatic
4 4 4 0 0 0
