  &input
  fildyn='lead.dyn', flfrc='lead.fc'
  /
