&bands
prefix = "silicon"
outdir = "./"
filband = "bands"
/
EOF