&control
calculation = "bands"
prefix = "silicon"
pseudo_dir = "./"
outdir = "./"
/
&system
ibrav = 2,
celldm(1) = 10.2078,
nat = 2
ntyp = 1
ecutwfc = 25.0,
nbnd = 8
/
&electrons
/
ATOMIC_SPECIES
Si 28.086 Si.pz-vbc.UPF
ATOMIC_POSITIONS
Si 0.00 0.00 0.00
Si 0.25 0.25 0.25
K_POINTS tpiba_b
3
0.500 0.500 0.500 20
0.000 0.000 0.000 20
1.000 0.000 0.000 20
EOF