&BANDS
  filband = 'bands'
  outdir  = './tmp/'
  plot_2d = .false. 
/
