&input
   fildyn='alas.dyn', flfrc='alas.fc'
/
