&control
calculation = 'scf'
prefix='alas'
pseudo_dir = './'
/
&system
ibrav = 2
celldm(1) = 10.60
nat = 2
ntyp = 2
ecutwfc = 30.0
/
&electrons
diagonalization = 'david'
mixing_beta = 0.7
conv_thr = 1.0d-10
/
ATOMIC_SPECIES
Al 26.98  Al.pz-vbc.UPF
As 74.92  As.pz-bhs.UPF
ATOMIC_POSITIONS alat
Al 0.00 0.00 0.00
As 0.25 0.25 0.25
K_POINTS automatic
4 4 4 1 1 1
