&inputph
prefix = 'alas',
fildyn = 'alas.dyn',
tr2_ph = 1.0d-12
amass(1)=28.0855
ldisp=.true.
epsil=.true.
nq1 = 4
nq2 = 4
nq3 = 4
/
