&control
   prefix = 'Si'
   calculation = 'bands'
   restart_mode = 'from_scratch'
   wf_collect = .false.
   tstress = .false.
   tprnfor = .false.
   outdir = './'
   wfcdir = './'
   pseudo_dir = './'
/
&system
   ibrav = 0
   nat = 2
   ntyp = 1
   ecutwfc = 25.0
   nbnd = 8
/
&electrons
   electron_maxstep = 1000
   conv_thr = 1.0d-12
   mixing_mode = 'plain'
   mixing_beta = 0.7
   mixing_ndim = 8
   diagonalization = 'david'
   diago_david_ndim = 8
   diago_full_acc = .true.
/
CELL_PARAMETERS bohr 
       0.000000000   5.100000000   5.100000000
       5.100000000   0.000000000   5.100000000
       5.100000000   5.100000000   0.000000000
ATOMIC_SPECIES
  Si  28.086  Si.UPF
ATOMIC_POSITIONS crystal
  Si  -0.125000000  -0.125000000  -0.125000000
  Si   0.125000000   0.125000000   0.125000000
K_POINTS crystal
64
  0.00000000  0.00000000  0.00100000  1.562500e-02
  0.00000000  0.00000000  0.25100000  1.562500e-02
  0.00000000  0.00000000  0.50100000  1.562500e-02
  0.00000000  0.00000000  0.75100000  1.562500e-02
  0.00000000  0.25000000  0.00100000  1.562500e-02
  0.00000000  0.25000000  0.25100000  1.562500e-02
  0.00000000  0.25000000  0.50100000  1.562500e-02
  0.00000000  0.25000000  0.75100000  1.562500e-02
  0.00000000  0.50000000  0.00100000  1.562500e-02
  0.00000000  0.50000000  0.25100000  1.562500e-02
  0.00000000  0.50000000  0.50100000  1.562500e-02
  0.00000000  0.50000000  0.75100000  1.562500e-02
  0.00000000  0.75000000  0.00100000  1.562500e-02
  0.00000000  0.75000000  0.25100000  1.562500e-02
  0.00000000  0.75000000  0.50100000  1.562500e-02
  0.00000000  0.75000000  0.75100000  1.562500e-02
  0.25000000  0.00000000  0.00100000  1.562500e-02
  0.25000000  0.00000000  0.25100000  1.562500e-02
  0.25000000  0.00000000  0.50100000  1.562500e-02
  0.25000000  0.00000000  0.75100000  1.562500e-02
  0.25000000  0.25000000  0.00100000  1.562500e-02
  0.25000000  0.25000000  0.25100000  1.562500e-02
  0.25000000  0.25000000  0.50100000  1.562500e-02
  0.25000000  0.25000000  0.75100000  1.562500e-02
  0.25000000  0.50000000  0.00100000  1.562500e-02
  0.25000000  0.50000000  0.25100000  1.562500e-02
  0.25000000  0.50000000  0.50100000  1.562500e-02
  0.25000000  0.50000000  0.75100000  1.562500e-02
  0.25000000  0.75000000  0.00100000  1.562500e-02
  0.25000000  0.75000000  0.25100000  1.562500e-02
  0.25000000  0.75000000  0.50100000  1.562500e-02
  0.25000000  0.75000000  0.75100000  1.562500e-02
  0.50000000  0.00000000  0.00100000  1.562500e-02
  0.50000000  0.00000000  0.25100000  1.562500e-02
  0.50000000  0.00000000  0.50100000  1.562500e-02
  0.50000000  0.00000000  0.75100000  1.562500e-02
  0.50000000  0.25000000  0.00100000  1.562500e-02
  0.50000000  0.25000000  0.25100000  1.562500e-02
  0.50000000  0.25000000  0.50100000  1.562500e-02
  0.50000000  0.25000000  0.75100000  1.562500e-02
  0.50000000  0.50000000  0.00100000  1.562500e-02
  0.50000000  0.50000000  0.25100000  1.562500e-02
  0.50000000  0.50000000  0.50100000  1.562500e-02
  0.50000000  0.50000000  0.75100000  1.562500e-02
  0.50000000  0.75000000  0.00100000  1.562500e-02
  0.50000000  0.75000000  0.25100000  1.562500e-02
  0.50000000  0.75000000  0.50100000  1.562500e-02
  0.50000000  0.75000000  0.75100000  1.562500e-02
  0.75000000  0.00000000  0.00100000  1.562500e-02
  0.75000000  0.00000000  0.25100000  1.562500e-02
  0.75000000  0.00000000  0.50100000  1.562500e-02
  0.75000000  0.00000000  0.75100000  1.562500e-02
  0.75000000  0.25000000  0.00100000  1.562500e-02
  0.75000000  0.25000000  0.25100000  1.562500e-02
  0.75000000  0.25000000  0.50100000  1.562500e-02
  0.75000000  0.25000000  0.75100000  1.562500e-02
  0.75000000  0.50000000  0.00100000  1.562500e-02
  0.75000000  0.50000000  0.25100000  1.562500e-02
  0.75000000  0.50000000  0.50100000  1.562500e-02
  0.75000000  0.50000000  0.75100000  1.562500e-02
  0.75000000  0.75000000  0.00100000  1.562500e-02
  0.75000000  0.75000000  0.25100000  1.562500e-02
  0.75000000  0.75000000  0.50100000  1.562500e-02
  0.75000000  0.75000000  0.75100000  1.562500e-02
