&input
fildyn = "dyn",
flfrc = "diam.fc"
/
EOF