&input
 prefix = 'graphene'
 fildyn = 'graphene.dyn'
 zasr   = 'zero-dim'
 flfrc  = 'graphene.fc'
/
