 &CONTROL
    calculation  = 'scf'
    restart_mode = 'from_scratch'
    prefix       = 'graphene'
    pseudo_dir   = '../pseudo/'
    outdir       = './'
    tstress      = .true.
    verbosity    = 'high'
 /

 &SYSTEM
    ibrav       = 4
    celldm(1)   = 4.6270
    celldm(3)   = 10
    nat         = 2
    ntyp        = 1
    ecutwfc     = 100.0
    occupations = 'smearing'
    smearing    = 'mp'
    degauss     = 5.0d-3
 /
 
 &ELECTRONS
     conv_thr =  1.0d-12
 /



ATOMIC_SPECIES
 C 12.011  C.upf

ATOMIC_POSITIONS (crystal)
C     1/3     2/3    0.0
C     2/3     1/3    0.0

K_POINTS automatic
32 32 1  1 1 0
