&bands
prefix = "copper"
outdir = "./"
filband = "bands"
/
EOF
