 &control
    calculation = 'scf'
    restart_mode = 'from_scratch',
    prefix = 'si',
    pseudo_dir = './',
    outdir='./'
 /
 &system
    ibrav = 2,
    celldm(1) = 30.60,
    nat =  54,
    ntyp = 1,
    ecutwfc = 30.0
 /
 &electrons
    diagonalization='david'
    mixing_mode = 'plain'
    mixing_beta = 0.7
    conv_thr = 1.0d-7
 /
ATOMIC_SPECIES
 Si  28.086  Si.pz-vbc.UPF
K_POINTS automatic
2 2 2 0 0 0
ATOMIC_POSITIONS
Si   0.00000000   0.00000000   0.00000000
Si  -0.08333333   0.25000000  -0.08333333
Si   0.33333333   0.00000000   0.00000000
Si   0.25000000   0.25000000  -0.08333333
Si   0.66666667   0.00000000   0.00000000
Si   0.58333333   0.25000000  -0.08333333
Si   0.00000000   0.33333333   0.00000000
Si  -0.08333333   0.58333333  -0.08333333
Si   0.33333333   0.33333333   0.00000000
Si   0.25000000   0.58333333  -0.08333333
Si   0.66666667   0.33333333   0.00000000
Si   0.58333333   0.58333333  -0.08333333
Si   0.00000000   0.66666667   0.00000000
Si  -0.08333333   0.91666667  -0.08333333
Si   0.33333333   0.66666667   0.00000000
Si   0.25000000   0.91666667  -0.08333333
Si   0.66666667   0.66666667   0.00000000
Si   0.58333333   0.91666667  -0.08333333
Si   0.00000000   0.00000000   0.33333333
Si  -0.08333333   0.25000000   0.25000000
Si   0.33333333   0.00000000   0.33333333
Si   0.25000000   0.25000000   0.25000000
Si   0.66666667   0.00000000   0.33333333
Si   0.58333333   0.25000000   0.25000000
Si   0.00000000   0.33333333   0.33333333
Si  -0.08333333   0.58333333   0.25000000
Si   0.33333333   0.33333333   0.33333333
Si   0.25000000   0.58333333   0.25000000
Si   0.66666667   0.33333333   0.33333333
Si   0.58333333   0.58333333   0.25000000
Si   0.00000000   0.66666667   0.33333333
Si  -0.08333333   0.91666667   0.25000000
Si   0.33333333   0.66666667   0.33333333
Si   0.25000000   0.91666667   0.25000000
Si   0.66666667   0.66666667   0.33333333
Si   0.58333333   0.91666667   0.25000000
Si   0.00000000   0.00000000   0.66666667
Si  -0.08333333   0.25000000   0.58333333
Si   0.33333333   0.00000000   0.66666667
Si   0.25000000   0.25000000   0.58333333
Si   0.66666667   0.00000000   0.66666667
Si   0.58333333   0.25000000   0.58333333
Si   0.00000000   0.33333333   0.66666667
Si  -0.08333333   0.58333333   0.58333333
Si   0.33333333   0.33333333   0.66666667
Si   0.25000000   0.58333333   0.58333333
Si   0.66666667   0.33333333   0.66666667
Si   0.58333333   0.58333333   0.58333333
Si   0.00000000   0.66666667   0.66666667
Si  -0.08333333   0.91666667   0.58333333
Si   0.33333333   0.66666667   0.66666667
Si   0.25000000   0.91666667   0.58333333
Si   0.66666667   0.66666667   0.66666667
Si   0.58333333   0.91666667   0.58333333
