&input
fildyn = "cl2.dyn",
asr = "zero-dim",
/
EOF