&control
  calculation = "bands"
  prefix = "p"
  pseudo_dir = "../pseudo/"
  outdir = "./tmp/"
  verbosity = 'high'
/

&system
  ibrav     = -9
  celldm(1) = 6.2612
  celldm(2) = 3.1609
  celldm(3) = 1.3201
  nat   = 4
  ntyp  = 1
  ecutwfc = 44
  occupations = 'smearing'
  smearing    = "mp"
  degauss     = 0.00001
/

&electrons
  conv_thr = 1.D-12
/

&ions
/

ATOMIC_SPECIES
  P 30.9738 P.upf

ATOMIC_POSITIONS (crystal)
P             0.3973750573        0.6026249427        0.4206372298
P             0.1026249427        0.8973750573        0.9206372298
P            -0.1026249427        0.1026249427        0.0793627702
P            -0.3973750573        0.3973750573        0.5793627702

K_POINTS crystal_b
7
    0.0000        0.0000        0.0000         50 !G
   -0.5           0.5           0              50 !Z
   -0.2750218575  0.7249781425  0.0000000000   50 !T
   -0.2750218575  0.7249781425  0.5000000000   50 !C
   -0.5000000000  0.5000000000  0.0000000000   50 !Z
   -0.5000000000  0.5000000000  0.5000000000   50 !R
    0.0           0.0          0.0             50 !G
