&input
fildyn = "dyn",
flfrc = "sto.fc"
/
EOF