phonons of STO
&inputph
prefix = "sto",
amass(1) = 87.62,
amass(2) = 47.867,
amass(3) = 15.9994,
epsil = .true.,
zeu = .true.,
fildyn = "dyn",
tr2_ph = 1.0d-14,
ldisp = .true.,
nq1 = 2,
nq2 = 2,
nq3 = 2,
/
EOF