&bands
prefix = "p"
outdir = "./tmp/"
filband = "bands"
/
