&control
  calculation = "bands"
  prefix = "p"
  pseudo_dir = "../pseudo/"
  outdir = "./tmp/"
  verbosity = 'high'
/

&system
  ibrav     = -9
  celldm(1) = 6.2550
  celldm(2) = 3.4061
  celldm(3) = 1.3768
  nat   = 4
  ntyp  = 1
  ecutwfc = 44
  occupations = 'smearing'
  smearing    = "mp"
  degauss     = 0.0001
/

&electrons
  conv_thr = 1.D-12
/

&ions
/

ATOMIC_SPECIES
  P 30.9738 P.upf

ATOMIC_POSITIONS (crystal)
P             0.4057377909        0.5942622091        0.4138250929
P             0.0942622091        0.9057377909        0.9138250929
P            -0.0942622091        0.0942622091        0.0861749071
P            -0.4057377909        0.4057377909        0.5861749071

K_POINTS crystal_b
7
    0.0000        0.0000        0.0000         50 !G
   -0.5           0.5           0              50 !Z
   -0.2750218575  0.7249781425  0.0000000000   50 !T
   -0.2750218575  0.7249781425  0.5000000000   50 !C
   -0.5000000000  0.5000000000  0.0000000000   50 !Z
   -0.5000000000  0.5000000000  0.5000000000   50 !R
    0.0           0.0          0.0             50 !G
