&control
calculation = "bands"
prefix = "copper"
pseudo_dir = "./"
outdir = "./"
/
&system
ibrav = 2
celldm(1) = 6.678
nat = 1
ntyp = 1
ecutwfc = 40
ecutrho = 300
occupations = "smearing"
smearing = "mp"
degauss = 0.01
nbnd = 8
/

&electrons
/

ATOMIC_SPECIES
Cu 63.546 Cu.pz-n-van_ak.UPF

ATOMIC_POSITIONS alat
Cu 0.00 0.00 0.00

K_POINTS automatic
30 30 30 0 0 0
EOF