&control
calculation = "bands"
prefix = "copper"
pseudo_dir = "./"
outdir = "./"
/
&system
ibrav = 2
celldm(1) = 6.678
nat = 1
ntyp = 1
ecutwfc = 40
ecutrho = 300
occupations = "smearing"
smearing = "mp"
degauss = 0.01
nbnd = 8
/
&electrons
/
ATOMIC_SPECIES
Cu 1.0 Cu.pz-n-van_ak.UPF

ATOMIC_POSITIONS alat
Cu 0.00 0.00 0.00

K_POINTS tpiba_b
6
0.00 0.00 0.00 50 ! G
0.00 1.00 0.00 50 ! X
0.50 1.00 0.00 50 ! W
0.50 0.50 0.50 50 ! L
0.00 0.00 0.00 50 ! G
0.75 0.75 0.00 50 ! K
EOF