 &control
    calculation = 'relax'
    restart_mode = 'from_scratch',
    prefix = 'si',
    pseudo_dir = './',
    outdir='./'
 /
 &system
    ibrav = 2,
    celldm(1) = 20.40,
    nat =  16,
    ntyp = 2,
    ecutwfc = 30.0
    occupations='smearing'
    degauss = 0.01
    nosym =.true.
 /
 &electrons
    diagonalization='david'
    mixing_mode = 'plain'
    mixing_beta = 0.7
    conv_thr = 1.0d-7
 /
 &ions
    ion_dynamics = 'bfgs'
/
ATOMIC_SPECIES
 Si  28.086  Si.pz-vbc.UPF
 P  30.974   P.pz-hgh.UPF
K_POINTS automatic
3 3 3 0 0 0
ATOMIC_POSITIONS (crystal)
P   0.00000000   0.00000000   0.00000000
Si  -0.12500000   0.37500000  -0.12500000
Si   0.50000000   0.00000000   0.00000000
Si   0.37500000   0.37500000  -0.12500000
Si   0.00000000   0.50000000   0.00000000
Si  -0.12500000   0.87500000  -0.12500000
Si   0.50000000   0.50000000   0.00000000
Si   0.37500000   0.87500000  -0.12500000
Si   0.00000000   0.00000000   0.50000000
Si  -0.12500000   0.37500000   0.37500000
Si   0.50000000   0.00000000   0.50000000
Si   0.37500000   0.37500000   0.37500000
Si   0.00000000   0.50000000   0.50000000
Si  -0.12500000   0.87500000   0.37500000
Si   0.50000000   0.50000000   0.50000000
Si   0.37500000   0.87500000   0.37500000
