 &control
    calculation = 'scf'
    restart_mode = 'from_scratch',
    prefix = 'si',
    pseudo_dir = './',
    outdir='./'
 /
 &system
    ibrav = 2,
    celldm(1) = 20.40,
    nat =  16,
    ntyp = 2,
    ecutwfc = 30.0
    occupations='smearing'
    degauss = 0.01
    nosym =.true.
 /
 &electrons
    diagonalization='david'
    mixing_mode = 'plain'
    mixing_beta = 0.7
    conv_thr = 1.0d-7
 /
ATOMIC_SPECIES
 Si  28.086  Si.pz-vbc.UPF
 P  30.974   P.pz-hgh.UPF
K_POINTS automatic
3 3 3 0 0 0
ATOMIC_POSITIONS (crystal)
P             0.0000000002       -0.0000000243        0.0000000412
Si           -0.1261235427        0.3783706126       -0.1261235364
Si            0.4983582216        0.0016417759        0.0016417825
Si            0.3751699490        0.3751699540       -0.1255098692
Si            0.0016417706        0.4983582252        0.0016417800
Si           -0.1261235463        0.8738764598       -0.1261235454
Si            0.4983582134        0.4983582133        0.0016417907
Si            0.3783706477        0.8738764517       -0.1261235465
Si            0.0016417985        0.0016418052        0.4983581945
Si           -0.1255098925        0.3751699883        0.3751699378
Si            0.4983582056        0.0016417944        0.4983582063
Si            0.3751699659        0.3751699770        0.3751699562
Si            0.0016417902        0.4983582115        0.4983582106
Si           -0.1261235587        0.8738764426        0.3783706794
Si            0.4999999969        0.5000000190        0.4999999746
Si            0.3751699807        0.8744900937        0.3751699437
