&input
 fildyn='si.dyn', flfrc = 'si.444.fc'
/
