 &control
  calculation = 'scf'
  restart_mode = 'from_scratch'
  prefix = 'ZG-si'
  pseudo_dir = './'
  outdir = './'
/
&system
  ibrav = 0
  nat =   54
  ntyp =    1
  ecutwfc =  20.00
/
&electrons
  diagonalization = 'david'
  mixing_mode= 'plain'
  mixing_beta = 0.70
  conv_thr =   0.1D-06
/
ATOMIC_SPECIES
   Si   28.085 Si.pz-vbc.UPF
K_POINTS automatic
   2   2   2   0   0   0
CELL_PARAMETERS {angstrom}
     -8.09641133      0.00000000      8.09641133
      0.00000000      8.09641133      8.09641133
     -8.09641133      8.09641133      0.00000000
ATOMIC_POSITIONS {angstrom}
   Si       0.04265650     -0.01526081     -0.05614113
   Si      -1.36909009      1.29480956      1.28183469
   Si      -2.64436320      0.04933250      2.69065458
   Si      -4.07129371      1.38926355      4.01380414
   Si      -5.43735204     -0.01300221      5.36066444
   Si      -6.77015220      1.33298808      6.74881715
   Si      -0.01307377      2.76123588      2.66556383
   Si      -1.35098789      4.04013170      4.06693387
   Si      -2.59588208      2.71074136      5.36874644
   Si      -3.94218050      4.09332388      6.76663756
   Si      -5.41955117      2.63875981      8.06711446
   Si      -6.70070037      4.04629272      9.52264073
   Si      -0.03022374      5.37377191      5.33613223
   Si      -1.37137694      6.71958896      6.76198176
   Si      -2.66903162      5.44287431      8.20324005
   Si      -4.13428146      6.77256499      9.37167634
   Si      -5.32260994      5.41831688     10.78359047
   Si      -6.66444253      6.71561202     12.06928600
   Si      -2.69854111      2.73487249      0.02742381
   Si      -4.09643093      4.09730010      1.43215623
   Si      -5.42383343      2.70779704      2.72305857
   Si      -6.78474751      4.06906943      4.10948849
   Si      -8.11915107      2.64462450      5.36264277
   Si      -9.40832158      4.02100883      6.77029301
   Si      -2.71117803      5.47050740      2.76653037
   Si      -4.05440404      6.71139870      4.09821596
   Si      -5.43803964      5.37464653      5.52028942
   Si      -6.76155426      6.68302276      6.81501215
   Si      -8.10082649      5.26492969      8.18017427
   Si      -9.42093751      6.73419821      9.44859629
   Si      -2.83221088      8.12424309      5.40117702
   Si      -4.07042055      9.39833311      6.71734608
   Si      -5.43982122      8.12393187      8.05536668
   Si      -6.66924813      9.51269051      9.44649855
   Si      -8.02386049      8.13884159     10.78412006
   Si      -9.50315239      9.35559948     12.10520905
   Si      -5.36142149      5.39184779     -0.06020553
   Si      -6.71838682      6.67966925      1.32233326
   Si      -8.13927611      5.46750995      2.73651591
   Si      -9.45942470      6.84310259      3.95766004
   Si     -10.78098347      5.44156378      5.33027754
   Si     -12.14379171      6.73829786      6.74914767
   Si      -5.43516911      8.01555180      2.71090598
   Si      -6.83538127      9.45231962      4.01336416
   Si      -8.05464096      8.05009937      5.40765151
   Si      -9.41190169      9.47569372      6.78534990
   Si     -10.76515157      8.06917186      8.08935005
   Si     -12.16476102      9.45546896      9.49763959
   Si      -5.43700624     10.73248627      5.35517785
   Si      -6.72433800     12.17927187      6.69615912
   Si      -8.08521230     10.81116602      8.11996850
   Si      -9.38226907     12.10006058      9.45272023
   Si     -10.79964922     10.80484321     10.80541371
   Si     -12.18527801     12.25817378     12.14845285
