&inputph
 fildyn = 'siG.dyn',
 tr2_ph = 1.0d-12
 amass(1)=28.0855
/
0.0 0.0 0.0
