&inputph
fildyn = 'si.dyn',
tr2_ph = 1.0d-12
amass(1)=28.0855
ldisp=.true.
nq1 = 4
nq2 = 4
nq3 = 4
/
