&input
 fildyn='si.dyn', flfrc = 'si.222.fc'
/
