&control
   prefix = 'Si'
   calculation = 'bands'
   restart_mode = 'from_scratch'
   wf_collect = .true.
   tstress = .false.
   tprnfor = .false.
   outdir = './'
   wfcdir = './'
   pseudo_dir = './'
   verbosity = 'high'
/
&system
   ibrav = 0
   a = 5.43
   nat = 2
   ntyp = 1
   ecutwfc = 25.0
   nbnd = 16
/
&electrons
   electron_maxstep = 1000
   conv_thr = 1.0d-12
   mixing_mode = 'plain'
   mixing_beta = 0.7
   mixing_ndim = 8
   diagonalization = 'david'
   diago_david_ndim = 8
   diago_full_acc = .true.
/
CELL_PARAMETERS alat
       0.000000000   0.500000000   0.500000000
       0.500000000   0.000000000   0.500000000
       0.500000000   0.500000000   0.000000000
ATOMIC_SPECIES
  Si  28.086  Si.UPF
ATOMIC_POSITIONS crystal
  Si  -0.125000000  -0.125000000  -0.125000000
  Si   0.125000000   0.125000000   0.125000000
K_POINTS crystal_b
 5
  0.50000000      0.50000000      0.50000000  43
  0.00000000      0.00000000      0.00000000  49
  0.50000000      0.00000000      0.50000000  17
  0.62500000      0.25000000      0.62500000  52
  0.00000000      0.00000000      0.00000000   1
