&control
calculation = "scf"
prefix = "sto",
pseudo_dir = "./",
outdir = "./"
/

&system
ibrav = 0,
celldm(1) = 7.2266,
nat = 5,
ntyp = 3,
ecutwfc = 100.0,
/

&electrons
/

&ions
/

ATOMIC_SPECIES
Sr 87.62 Sr.pz-hgh.UPF
Ti 47.97 Ti.pz-hgh.UPF
O  16.00 O.pz-hgh.UPF

ATOMIC_POSITIONS crystal
Sr 0.000000 0.000000 0.000000
Ti 0.500000 0.500000 0.500000
O  0.500000 0.000000 0.500000
O  0.500000 0.500000 0.000000
O  0.000000 0.500000 0.500000

K_POINTS automatic
4 4 4 1 1 1

CELL_PARAMETERS
0.9900 0.0000 0.0000
0.0000 0.9900 0.0000
0.0000 0.0000 0.9900